(set-info :smt-lib-version 2.6)
(set-logic UFLIA)
(set-info :source |
Generated by: Geoff Sutcliffe
Generated on: 2026-03-11
Generator: TPTPWorld
Application: Benchmarking automated theorem provers
Time limit: 120.0

These benchmarks are translations from the TPTP Library (Thousands of
Problems for Theorem Provers), see http://www.cs.miami.edu/~tptp/

The TPTP is maintained by Geoff Sutcliffe, and he contributed this
selection of benchmarks to SMT-LIB.  They were exported from the
v9.2.1 realease of TPTP.
|)
(set-info :category "industrial")
(set-info :status "unknown")
; SZS status Success
(declare-sort $$unsorted 0)

(declare-sort tptp.collection 0)
(declare-fun tptp.empty () tptp.collection)
(declare-fun tptp.add (Int tptp.collection) tptp.collection)
(declare-fun tptp.remove (Int tptp.collection) tptp.collection)
(declare-fun tptp.in (Int tptp.collection) Bool)
(assert (forall ((U Int)) (not (tptp.in U tptp.empty))))
(assert (forall ((V Int) (W tptp.collection)) (tptp.in V (tptp.add V W))))
(assert (forall ((X Int) (Y tptp.collection)) (not (tptp.in X (tptp.remove X Y)))))
(assert (forall ((Z Int) (X1 tptp.collection) (X2 Int)) (= (or (tptp.in Z X1) (= Z X2)) (tptp.in Z (tptp.add X2 X1)))))
(assert (forall ((X3 Int) (X4 tptp.collection) (X5 Int)) (= (and (tptp.in X3 X4) (not (= X3 X5))) (tptp.in X3 (tptp.remove X5 X4)))))
(assert (not (forall ((U tptp.collection) (V tptp.collection)) (=> (and (forall ((W Int)) (=> (tptp.in W V) (> W 0))) (forall ((X Int)) (=> (tptp.in X U) (exists ((Y Int)) (and (tptp.in Y V) (> X Y)))))) (forall ((Z Int)) (=> (tptp.in Z U) (> Z 1)))))))
(check-sat)
(exit)
